p cnf 12 50 
-12 1 10 0
12 5 8 0
-12 -5 4 0
7 -1 -9 0
12 -5 4 0
10 8 -1 0
2 7 -3 0
11 -5 -1 0
-2 -11 1 0
10 -5 9 0
11 6 -3 0
-1 2 5 0
-12 -10 -5 0
-11 9 7 0
-10 -7 -3 0
4 9 1 0
3 9 5 0
4 11 -9 0
12 -4 6 0
11 -6 2 0
-10 -12 -4 0
-9 7 3 0
-8 -6 -9 0
5 4 -1 0
6 9 -11 0
-1 -6 10 0
-10 -6 4 0
11 -3 -7 0
5 12 6 0
-2 1 6 0
3 1 10 0
-8 2 -10 0
-11 10 -5 0
-8 7 12 0
5 -8 12 0
9 7 -5 0
-11 7 3 0
-11 8 -4 0
7 -11 3 0
-6 -10 4 0
8 -5 1 0
1 10 3 0
8 -7 1 0
-2 -12 8 0
-4 -1 6 0
1 6 -5 0
9 11 12 0
1 -7 -5 0
-12 -7 -3 0
-11 -7 8 0
